c Generated map
c Size: 8 * 8, weights in range: 1 to 10, walls: True, with ratio 0.1
c dim 2 of 9
c
p sp 64 92
c graph contains 64 nodes and 92 arcs
c
a 1 9 9
a 9 1 9
a 1 2 9
a 2 1 9
a 2 10 4
a 10 2 4
a 2 3 4
a 3 2 4
a 3 11 5
a 11 3 5
a 3 4 7
a 4 3 7
a 4 12 4
a 12 4 4
a 4 5 7
a 5 4 7
a 5 6 5
a 6 5 5
a 6 14 5
a 14 6 5
a 6 7 6
a 7 6 6
a 7 15 6
a 15 7 6
a 7 8 5
a 8 7 5
a 8 16 2
a 16 8 2
a 9 17 1
a 17 9 1
a 9 10 10
a 10 9 10
a 10 18 4
a 18 10 4
a 10 11 4
a 11 10 4
a 11 19 2
a 19 11 2
a 11 12 8
a 12 11 8
a 12 20 6
a 20 12 6
a 14 22 3
a 22 14 3
a 14 15 5
a 15 14 5
a 15 23 1
a 23 15 1
a 15 16 9
a 16 15 9
a 16 24 8
a 24 16 8
a 17 25 9
a 25 17 9
a 17 18 4
a 18 17 4
a 18 26 4
a 26 18 4
a 18 19 4
a 19 18 4
a 19 27 4
a 27 19 4
a 19 20 1
a 20 19 1
a 20 28 7
a 28 20 7
a 22 30 9
a 30 22 9
a 22 23 3
a 23 22 3
a 23 31 8
a 31 23 8
a 23 24 3
a 24 23 3
a 25 33 4
a 33 25 4
a 25 26 3
a 26 25 3
a 26 34 6
a 34 26 6
a 26 27 7
a 27 26 7
a 27 35 6
a 35 27 6
a 27 28 6
a 28 27 6
a 28 36 6
a 36 28 6
a 28 29 5
a 29 28 5
a 29 37 8
a 37 29 8
a 29 30 8
a 30 29 8
a 30 38 7
a 38 30 7
a 30 31 9
a 31 30 9
a 31 39 5
a 39 31 5
a 33 41 6
a 41 33 6
a 33 34 10
a 34 33 10
a 34 42 5
a 42 34 5
a 34 35 5
a 35 34 5
a 35 43 8
a 43 35 8
a 35 36 3
a 36 35 3
a 36 44 5
a 44 36 5
a 36 37 4
a 37 36 4
a 37 45 7
a 45 37 7
a 37 38 10
a 38 37 10
a 38 39 3
a 39 38 3
a 39 40 3
a 40 39 3
a 40 48 10
a 48 40 10
a 41 49 8
a 49 41 8
a 41 42 10
a 42 41 10
a 42 50 5
a 50 42 5
a 42 43 3
a 43 42 3
a 43 51 3
a 51 43 3
a 43 44 1
a 44 43 1
a 44 52 2
a 52 44 2
a 44 45 7
a 45 44 7
a 45 53 6
a 53 45 6
a 48 56 7
a 56 48 7
a 49 57 7
a 57 49 7
a 49 50 6
a 50 49 6
a 50 58 3
a 58 50 3
a 50 51 1
a 51 50 1
a 51 59 1
a 59 51 1
a 51 52 4
a 52 51 4
a 52 60 3
a 60 52 3
a 52 53 5
a 53 52 5
a 53 61 6
a 61 53 6
a 53 54 2
a 54 53 2
a 54 55 4
a 55 54 4
a 55 63 10
a 63 55 10
a 55 56 3
a 56 55 3
a 56 64 9
a 64 56 9
a 57 58 7
a 58 57 7
a 58 59 4
a 59 58 4
a 59 60 5
a 60 59 5
a 60 61 9
a 61 60 9
a 63 64 5
a 64 63 5
